nNurses = 75;
nHours = 30;
minHours = 5;
maxHours = 11;
maxConsec = 6;
maxPresence = 20;
demand = [21, 16, 15, 15, 16, 18, 14, 9, 9, 7, 6, 7, 7, 7, 8, 10, 9, 14, 17, 19, 24, 19, 24, 22, 26, 28, 28, 26, 24, 23];
